(set-logic QF_BV)

(declare-const __ESBMC_ptr_obj_start_0 (_ BitVec 64))

(declare-const __ESBMC_ptr_obj_end_0 (_ BitVec 64))

(declare-const __ESBMC_ptr_obj_start_1 (_ BitVec 64))

(declare-const __ESBMC_ptr_obj_end_1 (_ BitVec 64))

(declare-const |smt_conv::__ESBMC_ptr_addr_range_0..start0| (_ BitVec 64))

(declare-const |smt_conv::__ESBMC_ptr_addr_range_0..end0| (_ BitVec 64))

(declare-const |smt_conv::__ESBMC_ptr_addr_range_1..start0| (_ BitVec 64))

(declare-const |smt_conv::__ESBMC_ptr_addr_range_1..end0| (_ BitVec 64))

(declare-const |smt_conv::smt_conv::collate_array_vals::3..start0| (_ BitVec 64))

(declare-const |smt_conv::smt_conv::collate_array_vals::3..end0| (_ BitVec 64))

(declare-const |smt_conv::smt_conv::collate_array_vals::4..start0| (_ BitVec 64))

(declare-const |smt_conv::smt_conv::collate_array_vals::4..end0| (_ BitVec 64))

(declare-const |smt_conv::smt_conv::collate_array_vals::7..start0| (_ BitVec 64))

(declare-const |smt_conv::smt_conv::collate_array_vals::7..end0| (_ BitVec 64))

(declare-const |c:PastaB1.c@91@F@main@x?1!0&0#1| (_ BitVec 32))

(declare-const |nondet$symex::nondet106| (_ BitVec 32))

(declare-const |c:PastaB1.c@102@F@main@y?1!0&0#1| (_ BitVec 32))

(declare-const |nondet$symex::nondet107| (_ BitVec 32))

(declare-const |goto_symex::guard?0!0&0#1| (_ BitVec 1))

(declare-const |c:PastaB1.c@91@F@main@x?1!0&0#2| (_ BitVec 32))

(declare-const |goto_symex::guard?0!0&0#2| (_ BitVec 1))

(declare-const |c:PastaB1.c@91@F@main@x?1!0&0#3| (_ BitVec 32))

(declare-const |goto_symex::guard?0!0&0#3| (_ BitVec 1))

(declare-const |c:PastaB1.c@91@F@main@x?1!0&0#4| (_ BitVec 32))

(declare-const |goto_symex::guard?0!0&0#4| (_ BitVec 1))

(declare-const |c:PastaB1.c@91@F@main@x?1!0&0#5| (_ BitVec 32))

(declare-const |goto_symex::guard?0!0&0#5| (_ BitVec 1))

(declare-const |c:PastaB1.c@91@F@main@x?1!0&0#6| (_ BitVec 32))

(declare-const |goto_symex::guard?0!0&0#6| (_ BitVec 1))

(declare-const |c:PastaB1.c@91@F@main@x?1!0&0#7| (_ BitVec 32))

(declare-const |goto_symex::guard?0!0&0#7| (_ BitVec 1))

(declare-const |c:PastaB1.c@91@F@main@x?1!0&0#8| (_ BitVec 32))

(declare-const |goto_symex::guard?0!0&0#8| (_ BitVec 1))

(declare-const |c:PastaB1.c@91@F@main@x?1!0&0#9| (_ BitVec 32))

(declare-const |goto_symex::guard?0!0&0#9| (_ BitVec 1))

(declare-const |c:PastaB1.c@91@F@main@x?1!0&0#10| (_ BitVec 32))

(declare-const |goto_symex::guard?0!0&0#10| (_ BitVec 1))

(declare-const |c:PastaB1.c@91@F@main@x?1!0&0#11| (_ BitVec 32))

(declare-const |goto_symex::guard?0!0&0#11| (_ BitVec 1))

(declare-const |c:PastaB1.c@91@F@main@x?1!0&0#12| (_ BitVec 32))

(declare-const |goto_symex::guard?0!0&0#12| (_ BitVec 1))

(declare-const |c:PastaB1.c@91@F@main@x?1!0&0#13| (_ BitVec 32))

(declare-const |goto_symex::guard?0!0&0#13| (_ BitVec 1))

(declare-const |c:PastaB1.c@91@F@main@x?1!0&0#14| (_ BitVec 32))

(declare-const |goto_symex::guard?0!0&0#14| (_ BitVec 1))

(declare-const |c:PastaB1.c@91@F@main@x?1!0&0#15| (_ BitVec 32))

(declare-const |goto_symex::guard?0!0&0#15| (_ BitVec 1))

(declare-const |c:PastaB1.c@91@F@main@x?1!0&0#16| (_ BitVec 32))

(declare-const |goto_symex::guard?0!0&0#16| (_ BitVec 1))

(declare-const |c:PastaB1.c@91@F@main@x?1!0&0#17| (_ BitVec 32))

(declare-const |goto_symex::guard?0!0&0#17| (_ BitVec 1))

(declare-const |c:PastaB1.c@91@F@main@x?1!0&0#18| (_ BitVec 32))

(declare-const |goto_symex::guard?0!0&0#18| (_ BitVec 1))

(declare-const |c:PastaB1.c@91@F@main@x?1!0&0#19| (_ BitVec 32))

(declare-const |goto_symex::guard?0!0&0#19| (_ BitVec 1))

(declare-const |c:PastaB1.c@91@F@main@x?1!0&0#20| (_ BitVec 32))

(declare-const |goto_symex::guard?0!0&0#20| (_ BitVec 1))

(declare-const |c:PastaB1.c@91@F@main@x?1!0&0#21| (_ BitVec 32))

(declare-const |goto_symex::guard?0!0&0#21| (_ BitVec 1))

(declare-const |c:PastaB1.c@91@F@main@x?1!0&0#22| (_ BitVec 32))

(declare-const |goto_symex::guard?0!0&0#22| (_ BitVec 1))

(declare-const |c:PastaB1.c@91@F@main@x?1!0&0#23| (_ BitVec 32))

(declare-const |goto_symex::guard?0!0&0#23| (_ BitVec 1))

(declare-const |c:PastaB1.c@91@F@main@x?1!0&0#24| (_ BitVec 32))

(declare-const |goto_symex::guard?0!0&0#24| (_ BitVec 1))

(declare-const |c:PastaB1.c@91@F@main@x?1!0&0#25| (_ BitVec 32))

(declare-const |goto_symex::guard?0!0&0#25| (_ BitVec 1))

(declare-const |c:PastaB1.c@91@F@main@x?1!0&0#26| (_ BitVec 32))

(declare-const |goto_symex::guard?0!0&0#26| (_ BitVec 1))

(declare-const |c:PastaB1.c@91@F@main@x?1!0&0#27| (_ BitVec 32))

(declare-const |goto_symex::guard?0!0&0#27| (_ BitVec 1))

(declare-const |c:PastaB1.c@91@F@main@x?1!0&0#28| (_ BitVec 32))

(declare-const |goto_symex::guard?0!0&0#28| (_ BitVec 1))

(declare-const |c:PastaB1.c@91@F@main@x?1!0&0#29| (_ BitVec 32))

(declare-const |goto_symex::guard?0!0&0#29| (_ BitVec 1))

(declare-const |c:PastaB1.c@91@F@main@x?1!0&0#30| (_ BitVec 32))

(declare-const |goto_symex::guard?0!0&0#30| (_ BitVec 1))

(declare-const |c:PastaB1.c@91@F@main@x?1!0&0#31| (_ BitVec 32))

(declare-const |goto_symex::guard?0!0&0#31| (_ BitVec 1))

(declare-const |c:PastaB1.c@91@F@main@x?1!0&0#32| (_ BitVec 32))

(declare-const |goto_symex::guard?0!0&0#32| (_ BitVec 1))

(declare-const |c:PastaB1.c@91@F@main@x?1!0&0#33| (_ BitVec 32))

(declare-const |goto_symex::guard?0!0&0#33| (_ BitVec 1))

(declare-const |c:PastaB1.c@91@F@main@x?1!0&0#34| (_ BitVec 32))

(declare-const |goto_symex::guard?0!0&0#34| (_ BitVec 1))

(declare-const |c:PastaB1.c@91@F@main@x?1!0&0#35| (_ BitVec 32))

(declare-const |goto_symex::guard?0!0&0#35| (_ BitVec 1))

(declare-const |c:PastaB1.c@91@F@main@x?1!0&0#36| (_ BitVec 32))

(declare-const |goto_symex::guard?0!0&0#36| (_ BitVec 1))

(declare-const |c:PastaB1.c@91@F@main@x?1!0&0#37| (_ BitVec 32))

(declare-const |goto_symex::guard?0!0&0#37| (_ BitVec 1))

(declare-const |c:PastaB1.c@91@F@main@x?1!0&0#38| (_ BitVec 32))

(declare-const |goto_symex::guard?0!0&0#38| (_ BitVec 1))

(declare-const |c:PastaB1.c@91@F@main@x?1!0&0#39| (_ BitVec 32))

(declare-const |goto_symex::guard?0!0&0#39| (_ BitVec 1))

(declare-const |c:PastaB1.c@91@F@main@x?1!0&0#40| (_ BitVec 32))

(declare-const |goto_symex::guard?0!0&0#40| (_ BitVec 1))

(declare-const |c:PastaB1.c@91@F@main@x?1!0&0#41| (_ BitVec 32))

(declare-const |goto_symex::guard?0!0&0#41| (_ BitVec 1))

(declare-const |c:PastaB1.c@91@F@main@x?1!0&0#42| (_ BitVec 32))

(declare-const |goto_symex::guard?0!0&0#42| (_ BitVec 1))

(declare-const |c:PastaB1.c@91@F@main@x?1!0&0#43| (_ BitVec 32))

(declare-const |goto_symex::guard?0!0&0#43| (_ BitVec 1))

(declare-const |c:PastaB1.c@91@F@main@x?1!0&0#44| (_ BitVec 32))

(declare-const |goto_symex::guard?0!0&0#44| (_ BitVec 1))

(declare-const |c:PastaB1.c@91@F@main@x?1!0&0#45| (_ BitVec 32))

(declare-const |goto_symex::guard?0!0&0#45| (_ BitVec 1))

(declare-const |c:PastaB1.c@91@F@main@x?1!0&0#46| (_ BitVec 32))

(declare-const |goto_symex::guard?0!0&0#46| (_ BitVec 1))

(declare-const |c:PastaB1.c@91@F@main@x?1!0&0#47| (_ BitVec 32))

(declare-const |goto_symex::guard?0!0&0#47| (_ BitVec 1))

(declare-const |c:PastaB1.c@91@F@main@x?1!0&0#48| (_ BitVec 32))

(declare-const |goto_symex::guard?0!0&0#48| (_ BitVec 1))

(declare-const |c:PastaB1.c@91@F@main@x?1!0&0#49| (_ BitVec 32))

(declare-const |goto_symex::guard?0!0&0#49| (_ BitVec 1))

(declare-const |c:PastaB1.c@91@F@main@x?1!0&0#50| (_ BitVec 32))

(declare-const |goto_symex::guard?0!0&0#50| (_ BitVec 1))

(declare-const |c:PastaB1.c@91@F@main@x?1!0&0#51| (_ BitVec 32))

(declare-const |goto_symex::guard?0!0&0#51| (_ BitVec 1))

(declare-const |c:PastaB1.c@91@F@main@x?1!0&0#52| (_ BitVec 32))

(declare-const |goto_symex::guard?0!0&0#52| (_ BitVec 1))

(declare-const |c:PastaB1.c@91@F@main@x?1!0&0#53| (_ BitVec 32))

(declare-const |goto_symex::guard?0!0&0#53| (_ BitVec 1))

(declare-const |c:PastaB1.c@91@F@main@x?1!0&0#54| (_ BitVec 32))

(declare-const |goto_symex::guard?0!0&0#54| (_ BitVec 1))

(declare-const |execution_statet::guard_exec?0!0| (_ BitVec 1))

(assert 

 (= __ESBMC_ptr_obj_start_0 #b0000000000000000000000000000000000000000000000000000000000000000))

(assert 

 (= #b0000000000000000000000000000000000000000000000000000000000000000 __ESBMC_ptr_obj_end_0))

(assert 

 (= __ESBMC_ptr_obj_start_1 #b0000000000000000000000000000000000000000000000000000000000000001))

(assert 

 (= #b1111111111111111111111111111111111111111111111111111111111111111 __ESBMC_ptr_obj_end_1))

(assert 

 (= __ESBMC_ptr_obj_end_0 |smt_conv::__ESBMC_ptr_addr_range_0..end0|))

(assert 

 (= __ESBMC_ptr_obj_start_0 |smt_conv::__ESBMC_ptr_addr_range_0..start0|))

(assert 

 (= __ESBMC_ptr_obj_end_1 |smt_conv::__ESBMC_ptr_addr_range_1..end0|))

(assert 

 (= __ESBMC_ptr_obj_start_1 |smt_conv::__ESBMC_ptr_addr_range_1..start0|))

(assert 

 (= |smt_conv::smt_conv::collate_array_vals::3..end0| |smt_conv::smt_conv::collate_array_vals::4..end0|))

(assert 

 (= |smt_conv::smt_conv::collate_array_vals::3..start0| |smt_conv::smt_conv::collate_array_vals::4..start0|))

(assert 

 (= __ESBMC_ptr_obj_end_0 |smt_conv::smt_conv::collate_array_vals::7..end0|))

(assert 

 (= __ESBMC_ptr_obj_start_0 |smt_conv::smt_conv::collate_array_vals::7..start0|))

(assert 

 (= |c:PastaB1.c@91@F@main@x?1!0&0#1| |nondet$symex::nondet106|))

(assert 

 (= |c:PastaB1.c@102@F@main@y?1!0&0#1| |nondet$symex::nondet107|))

(assert 

 (= |goto_symex::guard?0!0&0#1| 

  (ite 

   (bvslt |c:PastaB1.c@102@F@main@y?1!0&0#1| |c:PastaB1.c@91@F@main@x?1!0&0#1|) #b1 #b0)))

(assert 

 (= |c:PastaB1.c@91@F@main@x?1!0&0#2| 

  (bvadd #b11111111111111111111111111111111 |c:PastaB1.c@91@F@main@x?1!0&0#1|)))

(assert 

 (= |goto_symex::guard?0!0&0#2| 

  (ite 

   (bvslt |c:PastaB1.c@102@F@main@y?1!0&0#1| |c:PastaB1.c@91@F@main@x?1!0&0#2|) #b1 #b0)))

(assert 

 (= |c:PastaB1.c@91@F@main@x?1!0&0#3| 

  (bvadd #b11111111111111111111111111111111 |c:PastaB1.c@91@F@main@x?1!0&0#2|)))

(assert 

 (= |goto_symex::guard?0!0&0#3| 

  (ite 

   (bvslt |c:PastaB1.c@102@F@main@y?1!0&0#1| |c:PastaB1.c@91@F@main@x?1!0&0#3|) #b1 #b0)))

(assert 

 (= |c:PastaB1.c@91@F@main@x?1!0&0#4| 

  (bvadd #b11111111111111111111111111111111 |c:PastaB1.c@91@F@main@x?1!0&0#3|)))

(assert 

 (= |goto_symex::guard?0!0&0#4| 

  (ite 

   (bvslt |c:PastaB1.c@102@F@main@y?1!0&0#1| |c:PastaB1.c@91@F@main@x?1!0&0#4|) #b1 #b0)))

(assert 

 (= |c:PastaB1.c@91@F@main@x?1!0&0#5| 

  (bvadd #b11111111111111111111111111111111 |c:PastaB1.c@91@F@main@x?1!0&0#4|)))

(assert 

 (= |goto_symex::guard?0!0&0#5| 

  (ite 

   (bvslt |c:PastaB1.c@102@F@main@y?1!0&0#1| |c:PastaB1.c@91@F@main@x?1!0&0#5|) #b1 #b0)))

(assert 

 (= |c:PastaB1.c@91@F@main@x?1!0&0#6| 

  (bvadd #b11111111111111111111111111111111 |c:PastaB1.c@91@F@main@x?1!0&0#5|)))

(assert 

 (= |goto_symex::guard?0!0&0#6| 

  (ite 

   (bvslt |c:PastaB1.c@102@F@main@y?1!0&0#1| |c:PastaB1.c@91@F@main@x?1!0&0#6|) #b1 #b0)))

(assert 

 (= |c:PastaB1.c@91@F@main@x?1!0&0#7| 

  (bvadd #b11111111111111111111111111111111 |c:PastaB1.c@91@F@main@x?1!0&0#6|)))

(assert 

 (= |goto_symex::guard?0!0&0#7| 

  (ite 

   (bvslt |c:PastaB1.c@102@F@main@y?1!0&0#1| |c:PastaB1.c@91@F@main@x?1!0&0#7|) #b1 #b0)))

(assert 

 (= |c:PastaB1.c@91@F@main@x?1!0&0#8| 

  (bvadd #b11111111111111111111111111111111 |c:PastaB1.c@91@F@main@x?1!0&0#7|)))

(assert 

 (= |goto_symex::guard?0!0&0#8| 

  (ite 

   (bvslt |c:PastaB1.c@102@F@main@y?1!0&0#1| |c:PastaB1.c@91@F@main@x?1!0&0#8|) #b1 #b0)))

(assert 

 (= |c:PastaB1.c@91@F@main@x?1!0&0#9| 

  (bvadd #b11111111111111111111111111111111 |c:PastaB1.c@91@F@main@x?1!0&0#8|)))

(assert 

 (= |goto_symex::guard?0!0&0#9| 

  (ite 

   (bvslt |c:PastaB1.c@102@F@main@y?1!0&0#1| |c:PastaB1.c@91@F@main@x?1!0&0#9|) #b1 #b0)))

(assert 

 (= |c:PastaB1.c@91@F@main@x?1!0&0#10| 

  (bvadd #b11111111111111111111111111111111 |c:PastaB1.c@91@F@main@x?1!0&0#9|)))

(assert 

 (= |goto_symex::guard?0!0&0#10| 

  (ite 

   (bvslt |c:PastaB1.c@102@F@main@y?1!0&0#1| |c:PastaB1.c@91@F@main@x?1!0&0#10|) #b1 #b0)))

(assert 

 (= |c:PastaB1.c@91@F@main@x?1!0&0#11| 

  (bvadd #b11111111111111111111111111111111 |c:PastaB1.c@91@F@main@x?1!0&0#10|)))

(assert 

 (= |goto_symex::guard?0!0&0#11| 

  (ite 

   (bvslt |c:PastaB1.c@102@F@main@y?1!0&0#1| |c:PastaB1.c@91@F@main@x?1!0&0#11|) #b1 #b0)))

(assert 

 (= |c:PastaB1.c@91@F@main@x?1!0&0#12| 

  (bvadd #b11111111111111111111111111111111 |c:PastaB1.c@91@F@main@x?1!0&0#11|)))

(assert 

 (= |goto_symex::guard?0!0&0#12| 

  (ite 

   (bvslt |c:PastaB1.c@102@F@main@y?1!0&0#1| |c:PastaB1.c@91@F@main@x?1!0&0#12|) #b1 #b0)))

(assert 

 (= |c:PastaB1.c@91@F@main@x?1!0&0#13| 

  (bvadd #b11111111111111111111111111111111 |c:PastaB1.c@91@F@main@x?1!0&0#12|)))

(assert 

 (= |goto_symex::guard?0!0&0#13| 

  (ite 

   (bvslt |c:PastaB1.c@102@F@main@y?1!0&0#1| |c:PastaB1.c@91@F@main@x?1!0&0#13|) #b1 #b0)))

(assert 

 (= |c:PastaB1.c@91@F@main@x?1!0&0#14| 

  (bvadd #b11111111111111111111111111111111 |c:PastaB1.c@91@F@main@x?1!0&0#13|)))

(assert 

 (= |goto_symex::guard?0!0&0#14| 

  (ite 

   (bvslt |c:PastaB1.c@102@F@main@y?1!0&0#1| |c:PastaB1.c@91@F@main@x?1!0&0#14|) #b1 #b0)))

(assert 

 (= |c:PastaB1.c@91@F@main@x?1!0&0#15| 

  (bvadd #b11111111111111111111111111111111 |c:PastaB1.c@91@F@main@x?1!0&0#14|)))

(assert 

 (= |goto_symex::guard?0!0&0#15| 

  (ite 

   (bvslt |c:PastaB1.c@102@F@main@y?1!0&0#1| |c:PastaB1.c@91@F@main@x?1!0&0#15|) #b1 #b0)))

(assert 

 (= |c:PastaB1.c@91@F@main@x?1!0&0#16| 

  (bvadd #b11111111111111111111111111111111 |c:PastaB1.c@91@F@main@x?1!0&0#15|)))

(assert 

 (= |goto_symex::guard?0!0&0#16| 

  (ite 

   (bvslt |c:PastaB1.c@102@F@main@y?1!0&0#1| |c:PastaB1.c@91@F@main@x?1!0&0#16|) #b1 #b0)))

(assert 

 (= |c:PastaB1.c@91@F@main@x?1!0&0#17| 

  (bvadd #b11111111111111111111111111111111 |c:PastaB1.c@91@F@main@x?1!0&0#16|)))

(assert 

 (= |goto_symex::guard?0!0&0#17| 

  (ite 

   (bvslt |c:PastaB1.c@102@F@main@y?1!0&0#1| |c:PastaB1.c@91@F@main@x?1!0&0#17|) #b1 #b0)))

(assert 

 (= |c:PastaB1.c@91@F@main@x?1!0&0#18| 

  (bvadd #b11111111111111111111111111111111 |c:PastaB1.c@91@F@main@x?1!0&0#17|)))

(assert 

 (= |goto_symex::guard?0!0&0#18| 

  (ite 

   (bvslt |c:PastaB1.c@102@F@main@y?1!0&0#1| |c:PastaB1.c@91@F@main@x?1!0&0#18|) #b1 #b0)))

(assert 

 (= |c:PastaB1.c@91@F@main@x?1!0&0#19| 

  (bvadd #b11111111111111111111111111111111 |c:PastaB1.c@91@F@main@x?1!0&0#18|)))

(assert 

 (= |goto_symex::guard?0!0&0#19| 

  (ite 

   (bvslt |c:PastaB1.c@102@F@main@y?1!0&0#1| |c:PastaB1.c@91@F@main@x?1!0&0#19|) #b1 #b0)))

(assert 

 (= |c:PastaB1.c@91@F@main@x?1!0&0#20| 

  (bvadd #b11111111111111111111111111111111 |c:PastaB1.c@91@F@main@x?1!0&0#19|)))

(assert 

 (= |goto_symex::guard?0!0&0#20| 

  (ite 

   (bvslt |c:PastaB1.c@102@F@main@y?1!0&0#1| |c:PastaB1.c@91@F@main@x?1!0&0#20|) #b1 #b0)))

(assert 

 (= |c:PastaB1.c@91@F@main@x?1!0&0#21| 

  (bvadd #b11111111111111111111111111111111 |c:PastaB1.c@91@F@main@x?1!0&0#20|)))

(assert 

 (= |goto_symex::guard?0!0&0#21| 

  (ite 

   (bvslt |c:PastaB1.c@102@F@main@y?1!0&0#1| |c:PastaB1.c@91@F@main@x?1!0&0#21|) #b1 #b0)))

(assert 

 (= |c:PastaB1.c@91@F@main@x?1!0&0#22| 

  (bvadd #b11111111111111111111111111111111 |c:PastaB1.c@91@F@main@x?1!0&0#21|)))

(assert 

 (= |goto_symex::guard?0!0&0#22| 

  (ite 

   (bvslt |c:PastaB1.c@102@F@main@y?1!0&0#1| |c:PastaB1.c@91@F@main@x?1!0&0#22|) #b1 #b0)))

(assert 

 (= |c:PastaB1.c@91@F@main@x?1!0&0#23| 

  (bvadd #b11111111111111111111111111111111 |c:PastaB1.c@91@F@main@x?1!0&0#22|)))

(assert 

 (= |goto_symex::guard?0!0&0#23| 

  (ite 

   (bvslt |c:PastaB1.c@102@F@main@y?1!0&0#1| |c:PastaB1.c@91@F@main@x?1!0&0#23|) #b1 #b0)))

(assert 

 (= |c:PastaB1.c@91@F@main@x?1!0&0#24| 

  (bvadd #b11111111111111111111111111111111 |c:PastaB1.c@91@F@main@x?1!0&0#23|)))

(assert 

 (= |goto_symex::guard?0!0&0#24| 

  (ite 

   (bvslt |c:PastaB1.c@102@F@main@y?1!0&0#1| |c:PastaB1.c@91@F@main@x?1!0&0#24|) #b1 #b0)))

(assert 

 (= |c:PastaB1.c@91@F@main@x?1!0&0#25| 

  (bvadd #b11111111111111111111111111111111 |c:PastaB1.c@91@F@main@x?1!0&0#24|)))

(assert 

 (= |goto_symex::guard?0!0&0#25| 

  (ite 

   (bvslt |c:PastaB1.c@102@F@main@y?1!0&0#1| |c:PastaB1.c@91@F@main@x?1!0&0#25|) #b1 #b0)))

(assert 

 (= |c:PastaB1.c@91@F@main@x?1!0&0#26| 

  (bvadd #b11111111111111111111111111111111 |c:PastaB1.c@91@F@main@x?1!0&0#25|)))

(assert 

 (= |goto_symex::guard?0!0&0#26| 

  (ite 

   (bvslt |c:PastaB1.c@102@F@main@y?1!0&0#1| |c:PastaB1.c@91@F@main@x?1!0&0#26|) #b1 #b0)))

(assert 

 (= |c:PastaB1.c@91@F@main@x?1!0&0#27| 

  (bvadd #b11111111111111111111111111111111 |c:PastaB1.c@91@F@main@x?1!0&0#26|)))

(assert 

 (= |goto_symex::guard?0!0&0#27| 

  (ite 

   (bvslt |c:PastaB1.c@102@F@main@y?1!0&0#1| |c:PastaB1.c@91@F@main@x?1!0&0#27|) #b1 #b0)))

(assert 

 (= |c:PastaB1.c@91@F@main@x?1!0&0#28| 

  (bvadd #b11111111111111111111111111111111 |c:PastaB1.c@91@F@main@x?1!0&0#27|)))

(assert 

 (= |goto_symex::guard?0!0&0#28| 

  (ite 

   (bvslt |c:PastaB1.c@102@F@main@y?1!0&0#1| |c:PastaB1.c@91@F@main@x?1!0&0#28|) #b1 #b0)))

(assert 

 (= |c:PastaB1.c@91@F@main@x?1!0&0#29| 

  (bvadd #b11111111111111111111111111111111 |c:PastaB1.c@91@F@main@x?1!0&0#28|)))

(assert 

 (= |goto_symex::guard?0!0&0#29| 

  (ite 

   (bvslt |c:PastaB1.c@102@F@main@y?1!0&0#1| |c:PastaB1.c@91@F@main@x?1!0&0#29|) #b1 #b0)))

(assert 

 (= |c:PastaB1.c@91@F@main@x?1!0&0#30| 

  (bvadd #b11111111111111111111111111111111 |c:PastaB1.c@91@F@main@x?1!0&0#29|)))

(assert 

 (= |goto_symex::guard?0!0&0#30| 

  (ite 

   (bvslt |c:PastaB1.c@102@F@main@y?1!0&0#1| |c:PastaB1.c@91@F@main@x?1!0&0#30|) #b1 #b0)))

(assert 

 (= |c:PastaB1.c@91@F@main@x?1!0&0#31| 

  (bvadd #b11111111111111111111111111111111 |c:PastaB1.c@91@F@main@x?1!0&0#30|)))

(assert 

 (= |goto_symex::guard?0!0&0#31| 

  (ite 

   (bvslt |c:PastaB1.c@102@F@main@y?1!0&0#1| |c:PastaB1.c@91@F@main@x?1!0&0#31|) #b1 #b0)))

(assert 

 (= |c:PastaB1.c@91@F@main@x?1!0&0#32| 

  (bvadd #b11111111111111111111111111111111 |c:PastaB1.c@91@F@main@x?1!0&0#31|)))

(assert 

 (= |goto_symex::guard?0!0&0#32| 

  (ite 

   (bvslt |c:PastaB1.c@102@F@main@y?1!0&0#1| |c:PastaB1.c@91@F@main@x?1!0&0#32|) #b1 #b0)))

(assert 

 (= |c:PastaB1.c@91@F@main@x?1!0&0#33| 

  (bvadd #b11111111111111111111111111111111 |c:PastaB1.c@91@F@main@x?1!0&0#32|)))

(assert 

 (= |goto_symex::guard?0!0&0#33| 

  (ite 

   (bvslt |c:PastaB1.c@102@F@main@y?1!0&0#1| |c:PastaB1.c@91@F@main@x?1!0&0#33|) #b1 #b0)))

(assert 

 (= |c:PastaB1.c@91@F@main@x?1!0&0#34| 

  (bvadd #b11111111111111111111111111111111 |c:PastaB1.c@91@F@main@x?1!0&0#33|)))

(assert 

 (= |goto_symex::guard?0!0&0#34| 

  (ite 

   (bvslt |c:PastaB1.c@102@F@main@y?1!0&0#1| |c:PastaB1.c@91@F@main@x?1!0&0#34|) #b1 #b0)))

(assert 

 (= |c:PastaB1.c@91@F@main@x?1!0&0#35| 

  (bvadd #b11111111111111111111111111111111 |c:PastaB1.c@91@F@main@x?1!0&0#34|)))

(assert 

 (= |goto_symex::guard?0!0&0#35| 

  (ite 

   (bvslt |c:PastaB1.c@102@F@main@y?1!0&0#1| |c:PastaB1.c@91@F@main@x?1!0&0#35|) #b1 #b0)))

(assert 

 (= |c:PastaB1.c@91@F@main@x?1!0&0#36| 

  (bvadd #b11111111111111111111111111111111 |c:PastaB1.c@91@F@main@x?1!0&0#35|)))

(assert 

 (= |goto_symex::guard?0!0&0#36| 

  (ite 

   (bvslt |c:PastaB1.c@102@F@main@y?1!0&0#1| |c:PastaB1.c@91@F@main@x?1!0&0#36|) #b1 #b0)))

(assert 

 (= |c:PastaB1.c@91@F@main@x?1!0&0#37| 

  (bvadd #b11111111111111111111111111111111 |c:PastaB1.c@91@F@main@x?1!0&0#36|)))

(assert 

 (= |goto_symex::guard?0!0&0#37| 

  (ite 

   (bvslt |c:PastaB1.c@102@F@main@y?1!0&0#1| |c:PastaB1.c@91@F@main@x?1!0&0#37|) #b1 #b0)))

(assert 

 (= |c:PastaB1.c@91@F@main@x?1!0&0#38| 

  (bvadd #b11111111111111111111111111111111 |c:PastaB1.c@91@F@main@x?1!0&0#37|)))

(assert 

 (= |goto_symex::guard?0!0&0#38| 

  (ite 

   (bvslt |c:PastaB1.c@102@F@main@y?1!0&0#1| |c:PastaB1.c@91@F@main@x?1!0&0#38|) #b1 #b0)))

(assert 

 (= |c:PastaB1.c@91@F@main@x?1!0&0#39| 

  (bvadd #b11111111111111111111111111111111 |c:PastaB1.c@91@F@main@x?1!0&0#38|)))

(assert 

 (= |goto_symex::guard?0!0&0#39| 

  (ite 

   (bvslt |c:PastaB1.c@102@F@main@y?1!0&0#1| |c:PastaB1.c@91@F@main@x?1!0&0#39|) #b1 #b0)))

(assert 

 (= |c:PastaB1.c@91@F@main@x?1!0&0#40| 

  (bvadd #b11111111111111111111111111111111 |c:PastaB1.c@91@F@main@x?1!0&0#39|)))

(assert 

 (= |goto_symex::guard?0!0&0#40| 

  (ite 

   (bvslt |c:PastaB1.c@102@F@main@y?1!0&0#1| |c:PastaB1.c@91@F@main@x?1!0&0#40|) #b1 #b0)))

(assert 

 (= |c:PastaB1.c@91@F@main@x?1!0&0#41| 

  (bvadd #b11111111111111111111111111111111 |c:PastaB1.c@91@F@main@x?1!0&0#40|)))

(assert 

 (= |goto_symex::guard?0!0&0#41| 

  (ite 

   (bvslt |c:PastaB1.c@102@F@main@y?1!0&0#1| |c:PastaB1.c@91@F@main@x?1!0&0#41|) #b1 #b0)))

(assert 

 (= |c:PastaB1.c@91@F@main@x?1!0&0#42| 

  (bvadd #b11111111111111111111111111111111 |c:PastaB1.c@91@F@main@x?1!0&0#41|)))

(assert 

 (= |goto_symex::guard?0!0&0#42| 

  (ite 

   (bvslt |c:PastaB1.c@102@F@main@y?1!0&0#1| |c:PastaB1.c@91@F@main@x?1!0&0#42|) #b1 #b0)))

(assert 

 (= |c:PastaB1.c@91@F@main@x?1!0&0#43| 

  (bvadd #b11111111111111111111111111111111 |c:PastaB1.c@91@F@main@x?1!0&0#42|)))

(assert 

 (= |goto_symex::guard?0!0&0#43| 

  (ite 

   (bvslt |c:PastaB1.c@102@F@main@y?1!0&0#1| |c:PastaB1.c@91@F@main@x?1!0&0#43|) #b1 #b0)))

(assert 

 (= |c:PastaB1.c@91@F@main@x?1!0&0#44| 

  (bvadd #b11111111111111111111111111111111 |c:PastaB1.c@91@F@main@x?1!0&0#43|)))

(assert 

 (= |goto_symex::guard?0!0&0#44| 

  (ite 

   (bvslt |c:PastaB1.c@102@F@main@y?1!0&0#1| |c:PastaB1.c@91@F@main@x?1!0&0#44|) #b1 #b0)))

(assert 

 (= |c:PastaB1.c@91@F@main@x?1!0&0#45| 

  (bvadd #b11111111111111111111111111111111 |c:PastaB1.c@91@F@main@x?1!0&0#44|)))

(assert 

 (= |goto_symex::guard?0!0&0#45| 

  (ite 

   (bvslt |c:PastaB1.c@102@F@main@y?1!0&0#1| |c:PastaB1.c@91@F@main@x?1!0&0#45|) #b1 #b0)))

(assert 

 (= |c:PastaB1.c@91@F@main@x?1!0&0#46| 

  (bvadd #b11111111111111111111111111111111 |c:PastaB1.c@91@F@main@x?1!0&0#45|)))

(assert 

 (= |goto_symex::guard?0!0&0#46| 

  (ite 

   (bvslt |c:PastaB1.c@102@F@main@y?1!0&0#1| |c:PastaB1.c@91@F@main@x?1!0&0#46|) #b1 #b0)))

(assert 

 (= |c:PastaB1.c@91@F@main@x?1!0&0#47| 

  (bvadd #b11111111111111111111111111111111 |c:PastaB1.c@91@F@main@x?1!0&0#46|)))

(assert 

 (= |goto_symex::guard?0!0&0#47| 

  (ite 

   (bvslt |c:PastaB1.c@102@F@main@y?1!0&0#1| |c:PastaB1.c@91@F@main@x?1!0&0#47|) #b1 #b0)))

(assert 

 (= |c:PastaB1.c@91@F@main@x?1!0&0#48| 

  (bvadd #b11111111111111111111111111111111 |c:PastaB1.c@91@F@main@x?1!0&0#47|)))

(assert 

 (= |goto_symex::guard?0!0&0#48| 

  (ite 

   (bvslt |c:PastaB1.c@102@F@main@y?1!0&0#1| |c:PastaB1.c@91@F@main@x?1!0&0#48|) #b1 #b0)))

(assert 

 (= |c:PastaB1.c@91@F@main@x?1!0&0#49| 

  (bvadd #b11111111111111111111111111111111 |c:PastaB1.c@91@F@main@x?1!0&0#48|)))

(assert 

 (= |goto_symex::guard?0!0&0#49| 

  (ite 

   (bvslt |c:PastaB1.c@102@F@main@y?1!0&0#1| |c:PastaB1.c@91@F@main@x?1!0&0#49|) #b1 #b0)))

(assert 

 (= |c:PastaB1.c@91@F@main@x?1!0&0#50| 

  (bvadd #b11111111111111111111111111111111 |c:PastaB1.c@91@F@main@x?1!0&0#49|)))

(assert 

 (= |goto_symex::guard?0!0&0#50| 

  (ite 

   (bvslt |c:PastaB1.c@102@F@main@y?1!0&0#1| |c:PastaB1.c@91@F@main@x?1!0&0#50|) #b1 #b0)))

(assert 

 (= |c:PastaB1.c@91@F@main@x?1!0&0#51| 

  (bvadd #b11111111111111111111111111111111 |c:PastaB1.c@91@F@main@x?1!0&0#50|)))

(assert 

 (= |goto_symex::guard?0!0&0#51| 

  (ite 

   (bvslt |c:PastaB1.c@102@F@main@y?1!0&0#1| |c:PastaB1.c@91@F@main@x?1!0&0#51|) #b1 #b0)))

(assert 

 (= |c:PastaB1.c@91@F@main@x?1!0&0#52| 

  (bvadd #b11111111111111111111111111111111 |c:PastaB1.c@91@F@main@x?1!0&0#51|)))

(assert 

 (= |goto_symex::guard?0!0&0#52| 

  (ite 

   (bvslt |c:PastaB1.c@102@F@main@y?1!0&0#1| |c:PastaB1.c@91@F@main@x?1!0&0#52|) #b1 #b0)))

(assert 

 (= |c:PastaB1.c@91@F@main@x?1!0&0#53| 

  (bvadd #b11111111111111111111111111111111 |c:PastaB1.c@91@F@main@x?1!0&0#52|)))

(assert 

 (= |goto_symex::guard?0!0&0#53| 

  (ite 

   (bvslt |c:PastaB1.c@102@F@main@y?1!0&0#1| |c:PastaB1.c@91@F@main@x?1!0&0#53|) #b1 #b0)))

(assert 

 (= |c:PastaB1.c@91@F@main@x?1!0&0#54| 

  (bvadd #b11111111111111111111111111111111 |c:PastaB1.c@91@F@main@x?1!0&0#53|)))

(assert 

 (= |goto_symex::guard?0!0&0#54| 

  (ite 

   (bvslt |c:PastaB1.c@102@F@main@y?1!0&0#1| |c:PastaB1.c@91@F@main@x?1!0&0#54|) #b1 #b0)))

(assert (= |execution_statet::guard_exec?0!0| #b1))

(assert (= |goto_symex::guard?0!0&0#54| #b1))

(assert (= |goto_symex::guard?0!0&0#53| #b1))

(assert (= |goto_symex::guard?0!0&0#52| #b1))

(assert (= |goto_symex::guard?0!0&0#51| #b1))

(assert (= |goto_symex::guard?0!0&0#50| #b1))

(assert (= |goto_symex::guard?0!0&0#49| #b1))

(assert (= |goto_symex::guard?0!0&0#48| #b1))

(assert (= |goto_symex::guard?0!0&0#47| #b1))

(assert (= |goto_symex::guard?0!0&0#46| #b1))

(assert (= |goto_symex::guard?0!0&0#45| #b1))

(assert (= |goto_symex::guard?0!0&0#44| #b1))

(assert (= |goto_symex::guard?0!0&0#43| #b1))

(assert (= |goto_symex::guard?0!0&0#42| #b1))

(assert (= |goto_symex::guard?0!0&0#41| #b1))

(assert (= |goto_symex::guard?0!0&0#40| #b1))

(assert (= |goto_symex::guard?0!0&0#39| #b1))

(assert (= |goto_symex::guard?0!0&0#38| #b1))

(assert (= |goto_symex::guard?0!0&0#37| #b1))

(assert (= |goto_symex::guard?0!0&0#36| #b1))

(assert (= |goto_symex::guard?0!0&0#35| #b1))

(assert (= |goto_symex::guard?0!0&0#34| #b1))

(assert (= |goto_symex::guard?0!0&0#33| #b1))

(assert (= |goto_symex::guard?0!0&0#32| #b1))

(assert (= |goto_symex::guard?0!0&0#31| #b1))

(assert (= |goto_symex::guard?0!0&0#30| #b1))

(assert (= |goto_symex::guard?0!0&0#29| #b1))

(assert (= |goto_symex::guard?0!0&0#28| #b1))

(assert (= |goto_symex::guard?0!0&0#27| #b1))

(assert (= |goto_symex::guard?0!0&0#26| #b1))

(assert (= |goto_symex::guard?0!0&0#25| #b1))

(assert (= |goto_symex::guard?0!0&0#24| #b1))

(assert (= |goto_symex::guard?0!0&0#23| #b1))

(assert (= |goto_symex::guard?0!0&0#22| #b1))

(assert (= |goto_symex::guard?0!0&0#21| #b1))

(assert (= |goto_symex::guard?0!0&0#20| #b1))

(assert (= |goto_symex::guard?0!0&0#19| #b1))

(assert (= |goto_symex::guard?0!0&0#18| #b1))

(assert (= |goto_symex::guard?0!0&0#17| #b1))

(assert (= |goto_symex::guard?0!0&0#16| #b1))

(assert (= |goto_symex::guard?0!0&0#15| #b1))

(assert (= |goto_symex::guard?0!0&0#14| #b1))

(assert (= |goto_symex::guard?0!0&0#13| #b1))

(assert (= |goto_symex::guard?0!0&0#12| #b1))

(assert (= |goto_symex::guard?0!0&0#11| #b1))

(assert (= |goto_symex::guard?0!0&0#10| #b1))

(assert (= |goto_symex::guard?0!0&0#9| #b1))

(assert (= |goto_symex::guard?0!0&0#8| #b1))

(assert (= |goto_symex::guard?0!0&0#7| #b1))

(assert (= |goto_symex::guard?0!0&0#6| #b1))

(assert (= |goto_symex::guard?0!0&0#5| #b1))

(assert (= |goto_symex::guard?0!0&0#4| #b1))

(assert (= |goto_symex::guard?0!0&0#3| #b1))

(assert (= |goto_symex::guard?0!0&0#2| #b1))

(assert (= |goto_symex::guard?0!0&0#1| #b1))

(check-sat)

(exit)
